c generated by sgen
p cnf 41 92
-2 -3 -4 0
-1 -3 -4 0
-1 -2 -4 0
-1 -2 -3 0
-6 -7 -8 0
-5 -7 -8 0
-5 -6 -8 0
-5 -6 -7 0
-10 -11 -12 0
-9 -11 -12 0
-9 -10 -12 0
-9 -10 -11 0
-14 -15 -16 0
-13 -15 -16 0
-13 -14 -16 0
-13 -14 -15 0
-18 -19 -20 0
-17 -19 -20 0
-17 -18 -20 0
-17 -18 -19 0
-22 -23 -24 0
-21 -23 -24 0
-21 -22 -24 0
-21 -22 -23 0
-26 -27 -28 0
-25 -27 -28 0
-25 -26 -28 0
-25 -26 -27 0
-30 -31 -32 0
-29 -31 -32 0
-29 -30 -32 0
-29 -30 -31 0
-34 -35 -36 0
-33 -35 -36 0
-33 -34 -36 0
-33 -34 -35 0
-37 -38 -39 0
-37 -38 -40 0
-37 -38 -41 0
-37 -39 -40 0
-37 -39 -41 0
-37 -40 -41 0
-38 -39 -40 0
-38 -39 -41 0
-38 -40 -41 0
-39 -40 -41 0
22 13 31 0
36 13 31 0
36 22 31 0
36 22 13 0
29 23 2 0
8 23 2 0
8 29 2 0
8 29 23 0
3 12 30 0
28 12 30 0
28 3 30 0
28 3 12 0
27 34 17 0
6 34 17 0
6 27 17 0
6 27 34 0
21 11 25 0
38 11 25 0
38 21 25 0
38 21 11 0
16 7 10 0
19 7 10 0
19 16 10 0
19 16 7 0
33 5 39 0
9 5 39 0
9 33 39 0
9 33 5 0
1 20 24 0
41 20 24 0
41 1 24 0
41 1 20 0
40 14 32 0
18 14 32 0
18 40 32 0
18 40 14 0
4 35 15 0
4 35 26 0
4 35 37 0
4 15 26 0
4 15 37 0
4 26 37 0
35 15 26 0
35 15 37 0
35 26 37 0
15 26 37 0
